10
Time limit set to 60 seconds
Running CP solver
/home/omastto1/General-Optimization-Solver/src/solvers/mmrcpsp.py:42(stream:108:6): Warning: Cumulative expression 'pulse': height is zero, expression is zero everywhere.
                                                                                               VarCumulAtom_149 = pulse(task_0_mode_0, 0)
/home/omastto1/General-Optimization-Solver/src/solvers/mmrcpsp.py:42(stream:108:1253): Warning: Cumulative expression 'pulse': height is zero, expression is zero everywhere.
                                                                                                  VarCumulAtom_198 = pulse(task_17_mode_0, 0)
/home/omastto1/General-Optimization-Solver/src/solvers/mmrcpsp.py:42(stream:109:6): Warning: Cumulative expression 'pulse': height is zero, expression is zero everywhere.
                                                                                               VarCumulAtom_202 = pulse(task_0_mode_0, 0)
/home/omastto1/General-Optimization-Solver/src/solvers/mmrcpsp.py:42(stream:109:1253): Warning: Cumulative expression 'pulse': height is zero, expression is zero everywhere.
                                                                                                  VarCumulAtom_251 = pulse(task_17_mode_0, 0)
 ! --------------------------------------------------- CP Optimizer 20.1.0.0 --
 ! Minimization problem - 69 variables, 51 constraints
 ! TimeLimit            = 60
 ! Workers              = 14
 ! LogVerbosity         = Terse
 ! Initial process time : 0.01s (0.01s extraction + 0.00s propagation)
 !  . Log search space  : 160.3 (before), 160.3 (after)
 !  . Memory usage      : 754.6 kB (before), 754.6 kB (after)
 ! Using parallel search with 14 workers.
 ! ----------------------------------------------------------------------------
 !          Best Branches  Non-fixed    W       Branch decision
                        0         69                 -
 + New bound is 25
 ! Using iterative diving.
 ! Using temporal relaxation.
 *            34       44  0.27s        1      (gap is 26.47%)
 *            33      118  0.27s        1      (gap is 24.24%)
 *            32      178  0.27s        1      (gap is 21.88%)
 *            29      218  0.27s        1      (gap is 13.79%)
 *            28      258  0.27s        1      (gap is 10.71%)
 *            27      298  0.27s        1      (gap is 7.41%)
 *            26      331  0.27s        1      (gap is 3.85%)
 *            25      360  0.27s        1      (gap is 0.00%)
 ! ----------------------------------------------------------------------------
 ! Search completed, 8 solutions found.
 ! Best objective         : 25 (optimal - effective tol. is 0)
 ! Best bound             : 25
 ! ----------------------------------------------------------------------------
 ! Number of branches     : 64188
 ! Number of fails        : 1635
 ! Total memory usage     : 9.5 MB (9.4 MB CP Optimizer + 0.1 MB Concert)
 ! Time spent in solve    : 0.30s (0.29s engine + 0.01s extraction)
 ! Search speed (br. / s) : 229242.9
 ! ----------------------------------------------------------------------------
task_0: (start=0, end=0, size=0, length=0)
Task 0 is scheduled in mode 0 from 0 to 0
task_1: (start=0, end=4, size=4, length=4)
Task 1 is scheduled in mode 1 from 0 to 4
task_2: (start=0, end=3, size=3, length=3)
Task 2 is scheduled in mode 0 from 0 to 3
task_3: (start=0, end=5, size=5, length=5)
Task 3 is scheduled in mode 1 from 0 to 5
task_4: (start=4, end=11, size=7, length=7)
Task 4 is scheduled in mode 1 from 4 to 11
task_5: (start=5, end=11, size=6, length=6)
Task 5 is scheduled in mode 0 from 5 to 11
task_6: (start=11, end=14, size=3, length=3)
Task 6 is scheduled in mode 2 from 11 to 14
task_7: (start=4, end=14, size=10, length=10)
Task 7 is scheduled in mode 2 from 4 to 14
task_8: (start=4, end=7, size=3, length=3)
Task 8 is scheduled in mode 1 from 4 to 7
task_9: (start=7, end=14, size=7, length=7)
Task 9 is scheduled in mode 2 from 7 to 14
task_10: (start=7, end=13, size=6, length=6)
Task 10 is scheduled in mode 2 from 7 to 13
task_11: (start=13, end=18, size=5, length=5)
Task 11 is scheduled in mode 1 from 13 to 18
task_12: (start=14, end=24, size=10, length=10)
Task 12 is scheduled in mode 2 from 14 to 24
task_13: (start=14, end=18, size=4, length=4)
Task 13 is scheduled in mode 2 from 14 to 18
task_14: (start=24, end=25, size=1, length=1)
Task 14 is scheduled in mode 0 from 24 to 25
task_15: (start=18, end=19, size=1, length=1)
Task 15 is scheduled in mode 0 from 18 to 19
task_16: (start=18, end=22, size=4, length=4)
Task 16 is scheduled in mode 1 from 18 to 22
task_17: (start=25, end=25, size=0, length=0)
Task 17 is scheduled in mode 0 from 25 to 25
Optimal solution found
Objective value: 25
Solution is optimal.
